(set-info :smt-lib-version 2.6)
(set-logic QF_NIA)
(set-info :source |
Generated by: Cristina Borralleras, Daniel Larraz, Albert Oliveras, Enric Rodriguez-Carbonell, Albert Rubio
Generated on: 2017-04-27
Generator: VeryMax
Application: Termination proving
Target solver: barcelogic
|)
(set-info :license "https://creativecommons.org/licenses/by/4.0/")
(set-info :category "industrial")
(set-info :status unknown)
(declare-fun Nl3__const_19^01 () Int)
(declare-fun Nl3__const_29^01 () Int)
(declare-fun Nl3x_5^01 () Int)
(declare-fun Nl3y_6^01 () Int)
(declare-fun Nl3__const_19^02 () Int)
(declare-fun Nl3__const_29^02 () Int)
(declare-fun Nl3x_5^02 () Int)
(declare-fun Nl3y_6^02 () Int)
(declare-fun lam0n0 () Int)
(declare-fun lam0n1 () Int)
(declare-fun lam0n2 () Int)
(declare-fun lam0n3 () Int)
(declare-fun Nl3CT1 () Int)
(declare-fun Nl3CT2 () Int)
(declare-fun lam1n0 () Int)
(declare-fun lam1n1 () Int)
(declare-fun lam1n2 () Int)
(declare-fun lam1n3 () Int)
(declare-fun lam2n0 () Int)
(declare-fun lam2n1 () Int)
(declare-fun lam2n2 () Int)
(declare-fun lam2n3 () Int)
(declare-fun lam3n0 () Int)
(declare-fun lam4n0 () Int)
(declare-fun __const_19^0 () Int)
(declare-fun x_5^0 () Int)
(declare-fun __const_29^0 () Int)
(declare-fun y_6^0 () Int)
(declare-fun lam8n0 () Int)
(declare-fun lam8n1 () Int)
(declare-fun lam8n2 () Int)
(declare-fun lam8n3 () Int)
(declare-fun lam8n4 () Int)
(declare-fun lam8n5 () Int)
(declare-fun lam8n6 () Int)
(declare-fun lam8n7 () Int)
(declare-fun lam8n8 () Int)
(declare-fun lam8n9 () Int)
(declare-fun lam8n10 () Int)
(declare-fun lam8n11 () Int)
(declare-fun lam8n12 () Int)
(declare-fun lam8n13 () Int)
(declare-fun lam8n14 () Int)
(declare-fun lam8n15 () Int)
(declare-fun lam8n16 () Int)
(declare-fun lam8n17 () Int)
(declare-fun lam8n18 () Int)
(declare-fun lam8n19 () Int)
(declare-fun lam8n20 () Int)
(declare-fun lam8n21 () Int)
(declare-fun RFN1_CT () Int)
(declare-fun RFN1_x_5^0 () Int)
(declare-fun RFN1___const_19^0 () Int)
(declare-fun RFN1___const_29^0 () Int)
(declare-fun RFN1_y_6^0 () Int)
(declare-fun lam6n0 () Int)
(declare-fun lam6n1 () Int)
(declare-fun lam6n2 () Int)
(declare-fun lam6n3 () Int)
(declare-fun lam6n4 () Int)
(declare-fun lam6n5 () Int)
(declare-fun lam6n6 () Int)
(declare-fun lam6n7 () Int)
(declare-fun lam6n8 () Int)
(declare-fun lam6n9 () Int)
(declare-fun lam6n10 () Int)
(declare-fun lam6n11 () Int)
(declare-fun lam6n12 () Int)
(declare-fun lam6n13 () Int)
(declare-fun lam6n14 () Int)
(declare-fun lam6n15 () Int)
(declare-fun lam6n16 () Int)
(declare-fun lam6n17 () Int)
(declare-fun lam6n18 () Int)
(declare-fun lam6n19 () Int)
(declare-fun lam6n20 () Int)
(declare-fun lam6n21 () Int)
(declare-fun lam7n0 () Int)
(declare-fun lam7n1 () Int)
(declare-fun lam7n2 () Int)
(declare-fun lam7n3 () Int)
(declare-fun lam7n4 () Int)
(declare-fun lam7n5 () Int)
(declare-fun lam7n6 () Int)
(declare-fun lam7n7 () Int)
(declare-fun lam7n8 () Int)
(declare-fun lam7n9 () Int)
(declare-fun lam7n10 () Int)
(declare-fun lam7n11 () Int)
(declare-fun lam7n12 () Int)
(declare-fun lam7n13 () Int)
(declare-fun lam7n14 () Int)
(declare-fun lam7n15 () Int)
(declare-fun lam7n16 () Int)
(declare-fun lam7n17 () Int)
(declare-fun lam7n18 () Int)
(declare-fun lam7n19 () Int)
(declare-fun lam7n20 () Int)
(declare-fun lam7n21 () Int)
(declare-fun lam5n0 () Int)
(declare-fun lam5n1 () Int)
(declare-fun lam5n2 () Int)
(declare-fun lam5n3 () Int)
(declare-fun lam5n4 () Int)
(declare-fun lam5n5 () Int)
(declare-fun lam5n6 () Int)
(declare-fun lam5n7 () Int)
(declare-fun lam5n8 () Int)
(declare-fun lam5n9 () Int)
(declare-fun lam5n10 () Int)
(declare-fun lam5n11 () Int)
(declare-fun lam5n12 () Int)
(declare-fun lam5n13 () Int)
(declare-fun lam5n14 () Int)
(declare-fun lam5n15 () Int)
(declare-fun lam5n16 () Int)
(declare-fun lam5n17 () Int)
(declare-fun lam5n18 () Int)
(declare-fun lam5n19 () Int)
(declare-fun lam5n20 () Int)
(declare-fun lam5n21 () Int)
(assert ( and ( <= ( - 1 ) Nl3__const_19^01 ) ( <= Nl3__const_19^01 1 ) ( <= ( - 1 ) Nl3__const_29^01 ) ( <= Nl3__const_29^01 1 ) ( <= ( - 1 ) Nl3x_5^01 ) ( <= Nl3x_5^01 1 ) ( <= ( - 1 ) Nl3y_6^01 ) ( <= Nl3y_6^01 1 ) ( <= ( - 1 ) Nl3__const_19^02 ) ( <= Nl3__const_19^02 1 ) ( <= ( - 1 ) Nl3__const_29^02 ) ( <= Nl3__const_29^02 1 ) ( <= ( - 1 ) Nl3x_5^02 ) ( <= Nl3x_5^02 1 ) ( <= ( - 1 ) Nl3y_6^02 ) ( <= Nl3y_6^02 1 ) ))
(assert ( or ( and ( >= lam0n0 0 ) ( >= lam0n1 0 ) ( >= lam0n2 0 ) ( >= lam0n3 0 ) ( > ( + ( * 1 lam0n0 ) ( * Nl3CT1 lam0n2 ) ( * Nl3CT2 lam0n3 ) ( - 1 ) ) 0 ) ( = ( + ( * ( - 1 ) lam0n1 ) ( * Nl3__const_19^01 lam0n2 ) ( * Nl3__const_19^02 lam0n3 ) ) 0 ) ( = ( + ( * 1 lam0n0 ) ( * Nl3__const_29^01 lam0n2 ) ( * Nl3__const_29^02 lam0n3 ) ) 0 ) ( = ( + ( * 1 lam0n1 ) ( * Nl3x_5^01 lam0n2 ) ( * Nl3x_5^02 lam0n3 ) ) 0 ) ( = ( + ( * ( - 1 ) lam0n0 ) ( * Nl3y_6^01 lam0n2 ) ( * Nl3y_6^02 lam0n3 ) ) 0 ) ) ( and ( >= lam1n0 0 ) ( >= lam1n1 0 ) ( >= lam1n2 0 ) ( >= lam1n3 0 ) ( > ( + ( * 1 lam1n0 ) ( * Nl3CT1 lam1n2 ) ( * Nl3CT2 lam1n3 ) ( - 1 ( + Nl3CT1 ( * Nl3x_5^01 ( - 1 ) ) ) ) ) 0 ) ( = ( + ( * ( - 1 ) lam1n1 ) ( * Nl3__const_19^01 lam1n2 ) ( * Nl3__const_19^02 lam1n3 ) ( - ( + 0 Nl3__const_19^01 ) ) ) 0 ) ( = ( + ( * 1 lam1n0 ) ( * Nl3__const_29^01 lam1n2 ) ( * Nl3__const_29^02 lam1n3 ) ( - ( + 0 Nl3__const_29^01 ) ) ) 0 ) ( = ( + ( * 1 lam1n1 ) ( * Nl3x_5^01 lam1n2 ) ( * Nl3x_5^02 lam1n3 ) ( - ( + 0 ( * Nl3x_5^01 1 ) ) ) ) 0 ) ( = ( + ( * ( - 1 ) lam1n0 ) ( * Nl3y_6^01 lam1n2 ) ( * Nl3y_6^02 lam1n3 ) ( - ( + 0 Nl3y_6^01 ) ) ) 0 ) ) ))
(assert ( or ( and ( >= lam0n0 0 ) ( >= lam0n1 0 ) ( >= lam0n2 0 ) ( >= lam0n3 0 ) ( > ( + ( * 1 lam0n0 ) ( * Nl3CT1 lam0n2 ) ( * Nl3CT2 lam0n3 ) ( - 1 ) ) 0 ) ( = ( + ( * ( - 1 ) lam0n1 ) ( * Nl3__const_19^01 lam0n2 ) ( * Nl3__const_19^02 lam0n3 ) ) 0 ) ( = ( + ( * 1 lam0n0 ) ( * Nl3__const_29^01 lam0n2 ) ( * Nl3__const_29^02 lam0n3 ) ) 0 ) ( = ( + ( * 1 lam0n1 ) ( * Nl3x_5^01 lam0n2 ) ( * Nl3x_5^02 lam0n3 ) ) 0 ) ( = ( + ( * ( - 1 ) lam0n0 ) ( * Nl3y_6^01 lam0n2 ) ( * Nl3y_6^02 lam0n3 ) ) 0 ) ) ( and ( >= lam2n0 0 ) ( >= lam2n1 0 ) ( >= lam2n2 0 ) ( >= lam2n3 0 ) ( > ( + ( * 1 lam2n0 ) ( * Nl3CT1 lam2n2 ) ( * Nl3CT2 lam2n3 ) ( - 1 ( + Nl3CT2 ( * Nl3x_5^02 ( - 1 ) ) ) ) ) 0 ) ( = ( + ( * ( - 1 ) lam2n1 ) ( * Nl3__const_19^01 lam2n2 ) ( * Nl3__const_19^02 lam2n3 ) ( - ( + 0 Nl3__const_19^02 ) ) ) 0 ) ( = ( + ( * 1 lam2n0 ) ( * Nl3__const_29^01 lam2n2 ) ( * Nl3__const_29^02 lam2n3 ) ( - ( + 0 Nl3__const_29^02 ) ) ) 0 ) ( = ( + ( * 1 lam2n1 ) ( * Nl3x_5^01 lam2n2 ) ( * Nl3x_5^02 lam2n3 ) ( - ( + 0 ( * Nl3x_5^02 1 ) ) ) ) 0 ) ( = ( + ( * ( - 1 ) lam2n0 ) ( * Nl3y_6^01 lam2n2 ) ( * Nl3y_6^02 lam2n3 ) ( - ( + 0 Nl3y_6^02 ) ) ) 0 ) ) ))
(assert ( and ( <= ( + ( * ( - 1 ) __const_19^0 ) x_5^0 ) 0 ) ( <= ( + Nl3CT1 ( * ( + 0 Nl3__const_19^01 ) __const_19^0 ) ( * ( + 0 Nl3__const_29^01 ) __const_29^0 ) ( * ( + 0 Nl3x_5^01 ) x_5^0 ) ( * ( + 0 Nl3y_6^01 ) y_6^0 ) ) 0 ) ( <= ( + Nl3CT2 ( * ( + 0 Nl3__const_19^02 ) __const_19^0 ) ( * ( + 0 Nl3__const_29^02 ) __const_29^0 ) ( * ( + 0 Nl3x_5^02 ) x_5^0 ) ( * ( + 0 Nl3y_6^02 ) y_6^0 ) ) 0 ) ( <= ( + 1 __const_29^0 ( * ( - 1 ) y_6^0 ) ) 0 ) ( <= ( + ( - 1 ) ( * ( - 1 ) __const_19^0 ) x_5^0 ) 0 ) ( <= ( + ( - 1 ) ( * ( - 1 ) __const_19^0 ) x_5^0 ) 0 ) ( <= ( + ( - 1 ) ( * ( - 1 ) __const_19^0 ) x_5^0 ) 0 ) ( <= ( + ( - 1 ) ( * ( - 1 ) __const_19^0 ) x_5^0 ) 0 ) ( <= ( + ( * ( - 1 ) __const_19^0 ) x_5^0 ) 0 ) ( <= ( + ( - 1 ) ( * ( - 1 ) __const_19^0 ) x_5^0 ) 0 ) ( <= ( + ( * ( - 1 ) __const_19^0 ) x_5^0 ) 0 ) ( <= ( + ( - 1 ) ( * ( - 1 ) __const_19^0 ) x_5^0 ) 0 ) ( <= ( + ( - 1 ) ( * ( - 1 ) __const_19^0 ) x_5^0 ) 0 ) ( <= ( + ( - 1 ) ( * ( - 1 ) __const_19^0 ) x_5^0 ) 0 ) ( <= ( + ( - 1 ) ( * ( - 1 ) __const_19^0 ) x_5^0 ) 0 ) ( <= ( + ( - 1 ) ( * ( - 1 ) __const_19^0 ) x_5^0 ) 0 ) ( <= ( + ( - 1 ) ( * ( - 1 ) __const_19^0 ) x_5^0 ) 0 ) ))
(assert ( or ( and ( and ( >= lam8n0 0 ) ( >= lam8n1 0 ) ( >= lam8n2 0 ) ( >= lam8n3 0 ) ( >= lam8n4 0 ) ( >= lam8n5 0 ) ( >= lam8n6 0 ) ( >= lam8n7 0 ) ( >= lam8n8 0 ) ( >= lam8n9 0 ) ( >= lam8n10 0 ) ( >= lam8n11 0 ) ( >= lam8n12 0 ) ( >= lam8n13 0 ) ( >= lam8n14 0 ) ( >= lam8n15 0 ) ( >= lam8n16 0 ) ( >= lam8n17 0 ) ( >= lam8n18 0 ) ( >= lam8n19 0 ) ( >= lam8n20 0 ) ( >= lam8n21 0 ) ( > ( + ( * 1 lam8n0 ) ( * 50001 lam8n1 ) ( * 50001 lam8n2 ) ( * 50001 lam8n3 ) ( * 50001 lam8n4 ) ( * 50001 lam8n5 ) ( * 50001 lam8n6 ) ( * 50001 lam8n7 ) ( * 50001 lam8n8 ) ( * 50001 lam8n9 ) ( * 50001 lam8n10 ) ( * 50001 lam8n11 ) ( * 50001 lam8n12 ) ( * 50001 lam8n13 ) ( * 50001 lam8n14 ) ( * 50001 lam8n15 ) ( * 50001 lam8n16 ) ( * 50001 lam8n17 ) ( * 50001 lam8n18 ) ( * 50001 lam8n19 ) ( * Nl3CT1 lam8n20 ) ( * Nl3CT2 lam8n21 ) ( - 1 ( - ( + RFN1_CT ( * RFN1_x_5^0 ( - 1 ) ) ) RFN1_CT ) ) ) 0 ) ( = ( + ( * 1 lam8n1 ) ( * 1 lam8n2 ) ( * 1 lam8n3 ) ( * 1 lam8n4 ) ( * 1 lam8n5 ) ( * 1 lam8n6 ) ( * 1 lam8n7 ) ( * 1 lam8n8 ) ( * 1 lam8n9 ) ( * ( - 1 ) lam8n10 ) ( * ( - 1 ) lam8n11 ) ( * ( - 1 ) lam8n12 ) ( * ( - 1 ) lam8n13 ) ( * ( - 1 ) lam8n14 ) ( * ( - 1 ) lam8n15 ) ( * ( - 1 ) lam8n16 ) ( * ( - 5 ) lam8n17 ) ( * Nl3__const_19^01 lam8n20 ) ( * Nl3__const_19^02 lam8n21 ) ( - ( - ( + 0 RFN1___const_19^0 ) RFN1___const_19^0 ) ) ) 0 ) ( = ( + ( * 1 lam8n0 ) ( * 1 lam8n1 ) ( * 1 lam8n2 ) ( * 1 lam8n3 ) ( * ( - 1 ) lam8n4 ) ( * ( - 1 ) lam8n5 ) ( * ( - 1 ) lam8n6 ) ( * 1 lam8n10 ) ( * 1 lam8n11 ) ( * ( - 1 ) lam8n12 ) ( * ( - 1 ) lam8n13 ) ( * 1 lam8n17 ) ( * 1 lam8n18 ) ( * Nl3__const_29^01 lam8n20 ) ( * Nl3__const_29^02 lam8n21 ) ( - ( - ( + 0 RFN1___const_29^0 ) RFN1___const_29^0 ) ) ) 0 ) ( = ( + ( * 1 lam8n1 ) ( * 1 lam8n2 ) ( * 1 lam8n3 ) ( * 1 lam8n4 ) ( * 1 lam8n5 ) ( * 1 lam8n6 ) ( * 1 lam8n7 ) ( * 1 lam8n8 ) ( * 1 lam8n9 ) ( * 1 lam8n10 ) ( * 1 lam8n11 ) ( * 1 lam8n12 ) ( * 1 lam8n13 ) ( * 1 lam8n14 ) ( * 1 lam8n15 ) ( * 1 lam8n16 ) ( * 1 lam8n17 ) ( * 1 lam8n18 ) ( * 1 lam8n19 ) ( * Nl3x_5^01 lam8n20 ) ( * Nl3x_5^02 lam8n21 ) ( - ( - ( + 0 ( * RFN1_x_5^0 1 ) ) RFN1_x_5^0 ) ) ) 0 ) ( = ( + ( * ( - 1 ) lam8n0 ) ( * ( - 1 ) lam8n2 ) ( * 2 lam8n3 ) ( * 1 lam8n5 ) ( * ( - 1 ) lam8n6 ) ( * 1 lam8n8 ) ( * ( - 1 ) lam8n9 ) ( * ( - 1 ) lam8n11 ) ( * 1 lam8n12 ) ( * ( - 1 ) lam8n13 ) ( * 1 lam8n15 ) ( * ( - 1 ) lam8n16 ) ( * 1 lam8n17 ) ( * ( - 1 ) lam8n18 ) ( * ( - 1 ) lam8n19 ) ( * Nl3y_6^01 lam8n20 ) ( * Nl3y_6^02 lam8n21 ) ( - ( - ( + 0 RFN1_y_6^0 ) RFN1_y_6^0 ) ) ) 0 ) ) ( and ( and ( >= lam6n0 0 ) ( >= lam6n1 0 ) ( >= lam6n2 0 ) ( >= lam6n3 0 ) ( >= lam6n4 0 ) ( >= lam6n5 0 ) ( >= lam6n6 0 ) ( >= lam6n7 0 ) ( >= lam6n8 0 ) ( >= lam6n9 0 ) ( >= lam6n10 0 ) ( >= lam6n11 0 ) ( >= lam6n12 0 ) ( >= lam6n13 0 ) ( >= lam6n14 0 ) ( >= lam6n15 0 ) ( >= lam6n16 0 ) ( >= lam6n17 0 ) ( >= lam6n18 0 ) ( >= lam6n19 0 ) ( >= lam6n20 0 ) ( >= lam6n21 0 ) ( > ( + ( * 1 lam6n0 ) ( * 50001 lam6n1 ) ( * 50001 lam6n2 ) ( * 50001 lam6n3 ) ( * 50001 lam6n4 ) ( * 50001 lam6n5 ) ( * 50001 lam6n6 ) ( * 50001 lam6n7 ) ( * 50001 lam6n8 ) ( * 50001 lam6n9 ) ( * 50001 lam6n10 ) ( * 50001 lam6n11 ) ( * 50001 lam6n12 ) ( * 50001 lam6n13 ) ( * 50001 lam6n14 ) ( * 50001 lam6n15 ) ( * 50001 lam6n16 ) ( * 50001 lam6n17 ) ( * 50001 lam6n18 ) ( * 50001 lam6n19 ) ( * Nl3CT1 lam6n20 ) ( * Nl3CT2 lam6n21 ) ( - 1 ( - RFN1_CT ) ) ) 0 ) ( = ( + ( * 1 lam6n1 ) ( * 1 lam6n2 ) ( * 1 lam6n3 ) ( * 1 lam6n4 ) ( * 1 lam6n5 ) ( * 1 lam6n6 ) ( * 1 lam6n7 ) ( * 1 lam6n8 ) ( * 1 lam6n9 ) ( * ( - 1 ) lam6n10 ) ( * ( - 1 ) lam6n11 ) ( * ( - 1 ) lam6n12 ) ( * ( - 1 ) lam6n13 ) ( * ( - 1 ) lam6n14 ) ( * ( - 1 ) lam6n15 ) ( * ( - 1 ) lam6n16 ) ( * ( - 5 ) lam6n17 ) ( * Nl3__const_19^01 lam6n20 ) ( * Nl3__const_19^02 lam6n21 ) ( - ( - RFN1___const_19^0 ) ) ) 0 ) ( = ( + ( * 1 lam6n0 ) ( * 1 lam6n1 ) ( * 1 lam6n2 ) ( * 1 lam6n3 ) ( * ( - 1 ) lam6n4 ) ( * ( - 1 ) lam6n5 ) ( * ( - 1 ) lam6n6 ) ( * 1 lam6n10 ) ( * 1 lam6n11 ) ( * ( - 1 ) lam6n12 ) ( * ( - 1 ) lam6n13 ) ( * 1 lam6n17 ) ( * 1 lam6n18 ) ( * Nl3__const_29^01 lam6n20 ) ( * Nl3__const_29^02 lam6n21 ) ( - ( - RFN1___const_29^0 ) ) ) 0 ) ( = ( + ( * 1 lam6n1 ) ( * 1 lam6n2 ) ( * 1 lam6n3 ) ( * 1 lam6n4 ) ( * 1 lam6n5 ) ( * 1 lam6n6 ) ( * 1 lam6n7 ) ( * 1 lam6n8 ) ( * 1 lam6n9 ) ( * 1 lam6n10 ) ( * 1 lam6n11 ) ( * 1 lam6n12 ) ( * 1 lam6n13 ) ( * 1 lam6n14 ) ( * 1 lam6n15 ) ( * 1 lam6n16 ) ( * 1 lam6n17 ) ( * 1 lam6n18 ) ( * 1 lam6n19 ) ( * Nl3x_5^01 lam6n20 ) ( * Nl3x_5^02 lam6n21 ) ( - ( - RFN1_x_5^0 ) ) ) 0 ) ( = ( + ( * ( - 1 ) lam6n0 ) ( * ( - 1 ) lam6n2 ) ( * 2 lam6n3 ) ( * 1 lam6n5 ) ( * ( - 1 ) lam6n6 ) ( * 1 lam6n8 ) ( * ( - 1 ) lam6n9 ) ( * ( - 1 ) lam6n11 ) ( * 1 lam6n12 ) ( * ( - 1 ) lam6n13 ) ( * 1 lam6n15 ) ( * ( - 1 ) lam6n16 ) ( * 1 lam6n17 ) ( * ( - 1 ) lam6n18 ) ( * ( - 1 ) lam6n19 ) ( * Nl3y_6^01 lam6n20 ) ( * Nl3y_6^02 lam6n21 ) ( - ( - RFN1_y_6^0 ) ) ) 0 ) ) ( and ( >= lam7n0 0 ) ( >= lam7n1 0 ) ( >= lam7n2 0 ) ( >= lam7n3 0 ) ( >= lam7n4 0 ) ( >= lam7n5 0 ) ( >= lam7n6 0 ) ( >= lam7n7 0 ) ( >= lam7n8 0 ) ( >= lam7n9 0 ) ( >= lam7n10 0 ) ( >= lam7n11 0 ) ( >= lam7n12 0 ) ( >= lam7n13 0 ) ( >= lam7n14 0 ) ( >= lam7n15 0 ) ( >= lam7n16 0 ) ( >= lam7n17 0 ) ( >= lam7n18 0 ) ( >= lam7n19 0 ) ( >= lam7n20 0 ) ( >= lam7n21 0 ) ( > ( + ( * 1 lam7n0 ) ( * 50001 lam7n1 ) ( * 50001 lam7n2 ) ( * 50001 lam7n3 ) ( * 50001 lam7n4 ) ( * 50001 lam7n5 ) ( * 50001 lam7n6 ) ( * 50001 lam7n7 ) ( * 50001 lam7n8 ) ( * 50001 lam7n9 ) ( * 50001 lam7n10 ) ( * 50001 lam7n11 ) ( * 50001 lam7n12 ) ( * 50001 lam7n13 ) ( * 50001 lam7n14 ) ( * 50001 lam7n15 ) ( * 50001 lam7n16 ) ( * 50001 lam7n17 ) ( * 50001 lam7n18 ) ( * 50001 lam7n19 ) ( * Nl3CT1 lam7n20 ) ( * Nl3CT2 lam7n21 ) ( - 1 ( + ( - ( + RFN1_CT ( * RFN1_x_5^0 ( - 1 ) ) ) RFN1_CT ) 1 ) ) ) 0 ) ( = ( + ( * 1 lam7n1 ) ( * 1 lam7n2 ) ( * 1 lam7n3 ) ( * 1 lam7n4 ) ( * 1 lam7n5 ) ( * 1 lam7n6 ) ( * 1 lam7n7 ) ( * 1 lam7n8 ) ( * 1 lam7n9 ) ( * ( - 1 ) lam7n10 ) ( * ( - 1 ) lam7n11 ) ( * ( - 1 ) lam7n12 ) ( * ( - 1 ) lam7n13 ) ( * ( - 1 ) lam7n14 ) ( * ( - 1 ) lam7n15 ) ( * ( - 1 ) lam7n16 ) ( * ( - 5 ) lam7n17 ) ( * Nl3__const_19^01 lam7n20 ) ( * Nl3__const_19^02 lam7n21 ) ( - ( - ( + 0 RFN1___const_19^0 ) RFN1___const_19^0 ) ) ) 0 ) ( = ( + ( * 1 lam7n0 ) ( * 1 lam7n1 ) ( * 1 lam7n2 ) ( * 1 lam7n3 ) ( * ( - 1 ) lam7n4 ) ( * ( - 1 ) lam7n5 ) ( * ( - 1 ) lam7n6 ) ( * 1 lam7n10 ) ( * 1 lam7n11 ) ( * ( - 1 ) lam7n12 ) ( * ( - 1 ) lam7n13 ) ( * 1 lam7n17 ) ( * 1 lam7n18 ) ( * Nl3__const_29^01 lam7n20 ) ( * Nl3__const_29^02 lam7n21 ) ( - ( - ( + 0 RFN1___const_29^0 ) RFN1___const_29^0 ) ) ) 0 ) ( = ( + ( * 1 lam7n1 ) ( * 1 lam7n2 ) ( * 1 lam7n3 ) ( * 1 lam7n4 ) ( * 1 lam7n5 ) ( * 1 lam7n6 ) ( * 1 lam7n7 ) ( * 1 lam7n8 ) ( * 1 lam7n9 ) ( * 1 lam7n10 ) ( * 1 lam7n11 ) ( * 1 lam7n12 ) ( * 1 lam7n13 ) ( * 1 lam7n14 ) ( * 1 lam7n15 ) ( * 1 lam7n16 ) ( * 1 lam7n17 ) ( * 1 lam7n18 ) ( * 1 lam7n19 ) ( * Nl3x_5^01 lam7n20 ) ( * Nl3x_5^02 lam7n21 ) ( - ( - ( + 0 ( * RFN1_x_5^0 1 ) ) RFN1_x_5^0 ) ) ) 0 ) ( = ( + ( * ( - 1 ) lam7n0 ) ( * ( - 1 ) lam7n2 ) ( * 2 lam7n3 ) ( * 1 lam7n5 ) ( * ( - 1 ) lam7n6 ) ( * 1 lam7n8 ) ( * ( - 1 ) lam7n9 ) ( * ( - 1 ) lam7n11 ) ( * 1 lam7n12 ) ( * ( - 1 ) lam7n13 ) ( * 1 lam7n15 ) ( * ( - 1 ) lam7n16 ) ( * 1 lam7n17 ) ( * ( - 1 ) lam7n18 ) ( * ( - 1 ) lam7n19 ) ( * Nl3y_6^01 lam7n20 ) ( * Nl3y_6^02 lam7n21 ) ( - ( - ( + 0 RFN1_y_6^0 ) RFN1_y_6^0 ) ) ) 0 ) ) ) ) ( and ( >= lam5n0 0 ) ( >= lam5n1 0 ) ( >= lam5n2 0 ) ( >= lam5n3 0 ) ( >= lam5n4 0 ) ( >= lam5n5 0 ) ( >= lam5n6 0 ) ( >= lam5n7 0 ) ( >= lam5n8 0 ) ( >= lam5n9 0 ) ( >= lam5n10 0 ) ( >= lam5n11 0 ) ( >= lam5n12 0 ) ( >= lam5n13 0 ) ( >= lam5n14 0 ) ( >= lam5n15 0 ) ( >= lam5n16 0 ) ( >= lam5n17 0 ) ( >= lam5n18 0 ) ( >= lam5n19 0 ) ( >= lam5n20 0 ) ( >= lam5n21 0 ) ( > ( + ( * 1 lam5n0 ) ( * 50001 lam5n1 ) ( * 50001 lam5n2 ) ( * 50001 lam5n3 ) ( * 50001 lam5n4 ) ( * 50001 lam5n5 ) ( * 50001 lam5n6 ) ( * 50001 lam5n7 ) ( * 50001 lam5n8 ) ( * 50001 lam5n9 ) ( * 50001 lam5n10 ) ( * 50001 lam5n11 ) ( * 50001 lam5n12 ) ( * 50001 lam5n13 ) ( * 50001 lam5n14 ) ( * 50001 lam5n15 ) ( * 50001 lam5n16 ) ( * 50001 lam5n17 ) ( * 50001 lam5n18 ) ( * 50001 lam5n19 ) ( * Nl3CT1 lam5n20 ) ( * Nl3CT2 lam5n21 ) ( - 1 ) ) 0 ) ( = ( + ( * 1 lam5n1 ) ( * 1 lam5n2 ) ( * 1 lam5n3 ) ( * 1 lam5n4 ) ( * 1 lam5n5 ) ( * 1 lam5n6 ) ( * 1 lam5n7 ) ( * 1 lam5n8 ) ( * 1 lam5n9 ) ( * ( - 1 ) lam5n10 ) ( * ( - 1 ) lam5n11 ) ( * ( - 1 ) lam5n12 ) ( * ( - 1 ) lam5n13 ) ( * ( - 1 ) lam5n14 ) ( * ( - 1 ) lam5n15 ) ( * ( - 1 ) lam5n16 ) ( * ( - 5 ) lam5n17 ) ( * Nl3__const_19^01 lam5n20 ) ( * Nl3__const_19^02 lam5n21 ) ) 0 ) ( = ( + ( * 1 lam5n0 ) ( * 1 lam5n1 ) ( * 1 lam5n2 ) ( * 1 lam5n3 ) ( * ( - 1 ) lam5n4 ) ( * ( - 1 ) lam5n5 ) ( * ( - 1 ) lam5n6 ) ( * 1 lam5n10 ) ( * 1 lam5n11 ) ( * ( - 1 ) lam5n12 ) ( * ( - 1 ) lam5n13 ) ( * 1 lam5n17 ) ( * 1 lam5n18 ) ( * Nl3__const_29^01 lam5n20 ) ( * Nl3__const_29^02 lam5n21 ) ) 0 ) ( = ( + ( * 1 lam5n1 ) ( * 1 lam5n2 ) ( * 1 lam5n3 ) ( * 1 lam5n4 ) ( * 1 lam5n5 ) ( * 1 lam5n6 ) ( * 1 lam5n7 ) ( * 1 lam5n8 ) ( * 1 lam5n9 ) ( * 1 lam5n10 ) ( * 1 lam5n11 ) ( * 1 lam5n12 ) ( * 1 lam5n13 ) ( * 1 lam5n14 ) ( * 1 lam5n15 ) ( * 1 lam5n16 ) ( * 1 lam5n17 ) ( * 1 lam5n18 ) ( * 1 lam5n19 ) ( * Nl3x_5^01 lam5n20 ) ( * Nl3x_5^02 lam5n21 ) ) 0 ) ( = ( + ( * ( - 1 ) lam5n0 ) ( * ( - 1 ) lam5n2 ) ( * 2 lam5n3 ) ( * 1 lam5n5 ) ( * ( - 1 ) lam5n6 ) ( * 1 lam5n8 ) ( * ( - 1 ) lam5n9 ) ( * ( - 1 ) lam5n11 ) ( * 1 lam5n12 ) ( * ( - 1 ) lam5n13 ) ( * 1 lam5n15 ) ( * ( - 1 ) lam5n16 ) ( * 1 lam5n17 ) ( * ( - 1 ) lam5n18 ) ( * ( - 1 ) lam5n19 ) ( * Nl3y_6^01 lam5n20 ) ( * Nl3y_6^02 lam5n21 ) ) 0 ) ) ))
(check-sat)
(exit)
